p cnf 32 30
-1 8 30 0 
-2 9 20 31 0 
-3 30 0 
-4 30 0 
-5 31 0 
-6 32 0 
-7 19 30 0 
-8 1 31 0 
-9 2 20 -10 30 0 
-11 29 -12 32 0 
-13 30 0 
-14 21 30 0 
-9 2 20 30 0 
-12 30 0 
-15 32 0 
-16 30 0 
-11 29 32 0 
-17 32 0 
-18 30 0 
-19 7 31 0 
-20 2 9 30 0 
-21 14 30 0 
-22 30 0 
-23 30 0 
-24 30 0 
-25 31 0 
-26 -12 30 0 
-27 -3 30 0 
-28 30 0 
-29 11 31 0 
